 ! --------------------------------------------------- CP Optimizer 22.1.1.0 --
 ! Satisfiability problem - 38600 variables, 342420 constraints
 ! Presolve      : 24000 extractables eliminated
 ! TimeLimit            = 3600
 ! Workers              = 1
 ! Initial process time : 3.42s (3.42s extraction + 0.01s propagation)
 !  . Log search space  : 402751.0 (before), 402751.0 (after)
 !  . Memory usage      : 272.0 MB (before), 272.0 MB (after)
 ! Using sequential search.
 ! ----------------------------------------------------------------------------
 !               Branches  Non-fixed            Branch decision
                     1117      37939        F          presenceOf(copy_trips:27_7)
                     2065      37990        F          presenceOf(copy_trips:33_0)
                     3000      13235                   presenceOf(copy_bus_parking:1_299)
                     4000      24908            247 != endOf(start_parking:31)
                     5000      31085                   presenceOf(copy_lane_parking:4_177)
                     6000      13235                   presenceOf(copy_lane_parking:1_192)
                     7000      13102                   presenceOf(copy_bus_parking:30_72)
                     8000      30098                  !presenceOf(copy_trips:22_77)
                     9000      13093        F          presenceOf(copy_bus_parking:25_219)
                    10000      13093        F         !presenceOf(copy_bus_parking:6_298)
                    11000      24905                   presenceOf(copy_lane_parking:4_3)
                    12000      27877        F          presenceOf(copy_trips:24_31)
                    13000      24902                   presenceOf(copy_trips:6_219)
                    14000      24902        F          presenceOf(copy_trips:37_219)
                    15000      24899                   presenceOf(copy_trips:17_219)
                    16000      24902                   presenceOf(copy_trips:37_194)
                    17000      18578                  !presenceOf(copy_trips:12_13)
                    18000      18338                   presenceOf(copy_bus_parking:8_137)
                    19000      13096        F          presenceOf(copy_bus_parking:15_47)
                    20000      29820                  !presenceOf(copy_bus_parking:16_278)
 ! Time = 25.21s, Average fail depth = 369, Memory usage = 871.3 MB
 !               Branches  Non-fixed            Branch decision
                    21000      34639        F          presenceOf(copy_trips:33_1)
                    22000      28090                  !presenceOf(copy_trips:13_25)
                    23000      13235        F          presenceOf(copy_bus_parking:4_219)
                    24000      13232        F          presenceOf(copy_bus_parking:11_219)
                    25000      13235        F          presenceOf(copy_bus_parking:24_219)
                    26000      13232                   presenceOf(copy_lane_parking:0_230)
                    27000      28207                   presenceOf(copy_lane_parking:5_144)
                    28000      22053                   presenceOf(copy_lane_parking:0_183)
                    29000      23534                   presenceOf(copy_lane_parking:1_291)
                    30000      30203        F          presenceOf(copy_trips:5_95)
                    31000      24905                  !presenceOf(copy_trips:23_219)
                    32000      24905        F          presenceOf(copy_trips:7_40)
                    33000      29817                  !presenceOf(copy_trips:30_0)
                    34000      13093                   presenceOf(copy_bus_parking:28_219)
                    35000      13093                   presenceOf(copy_lane_parking:0_197)
                    36000      26644        F          presenceOf(copy_trips:33_65)
                    37000      25429                  !presenceOf(copy_trips:35_47)
                    38000      13232        F          presenceOf(copy_bus_parking:39_219)
                    39000      13232                   presenceOf(copy_bus_parking:3_256)
                    40000      24872                   presenceOf(copy_lane_parking:4_189)
 ! Time = 46.37s, Average fail depth = 366, Memory usage = 871.7 MB
 !               Branches  Non-fixed            Branch decision
                    41000      24905                   presenceOf(copy_bus_parking:3_219)
                    42000      24905        F          presenceOf(copy_bus_parking:20_219)
                    43000      24902        F         !presenceOf(copy_trips:7_298)
                    44000      24905                  !presenceOf(copy_trips:26_32)
                    45000      28300        F          presenceOf(copy_trips:25_25)
                    46000      28297                  !presenceOf(copy_trips:7_32)
                    47000      28297                  !presenceOf(copy_trips:5_32)
                    48000      28297                  !presenceOf(copy_trips:8_32)
                    49000      28297                  !presenceOf(copy_trips:31_32)
                    50000      28300                  !presenceOf(copy_trips:15_32)
                    51000      28297        F          presenceOf(copy_trips:32_20)
                    52000      28300        F          presenceOf(copy_trips:8_20)
                    53000      28297                  !presenceOf(copy_trips:2_32)
                    54000      28297        F          presenceOf(copy_trips:13_25)
                    55000      28297                  !presenceOf(copy_trips:15_32)
                    56000      28294        F          presenceOf(copy_trips:31_25)
                    57000      28297        F         !presenceOf(copy_bus_parking:7_4)
                    58000      24896        F         !presenceOf(copy_trips:34_298)
                    59000      24905        F         !presenceOf(copy_trips:14_298)
                    60000      24905                   presenceOf(copy_trips:16_219)
 ! Time = 72.91s, Average fail depth = 370, Memory usage = 871.7 MB
 !               Branches  Non-fixed            Branch decision
                    61000      24896                   presenceOf(copy_lane_parking:4_233)
                    62000      34208                  !presenceOf(copy_bus_parking:1_0)
                    63000      13232                  !presenceOf(copy_bus_parking:31_219)
                    64000      13232                   presenceOf(copy_lane_parking:2_36)
                    65000      34263                  !presenceOf(copy_bus_parking:13_2)
                    66000      33581                   presenceOf(copy_lane_parking:5_169)
                    67000      23286                   presenceOf(copy_lane_parking:3_285)
                    68000      24905                   presenceOf(copy_lane_parking:4_37)
                    69000      27220                  !presenceOf(copy_bus_parking:25_14)
                    70000      27220        F          presenceOf(copy_trips:15_7)
                    71000      27489        F          presenceOf(copy_bus_parking:5_31)
                    72000      27220                  !presenceOf(copy_bus_parking:14_14)
                    73000      28251        F          presenceOf(copy_bus_parking:37_14)
                    74000      27479                  !presenceOf(copy_bus_parking:11_31)
                    75000      27220                  !presenceOf(copy_bus_parking:39_14)
                    76000      28198        F          presenceOf(copy_bus_parking:9_31)
                    77000      28198                  !presenceOf(copy_bus_parking:7_14)
                    78000      28245        F          presenceOf(copy_trips:23_30)
                    79000      27220                  !presenceOf(copy_bus_parking:12_14)
                    80000      27223        F         !presenceOf(copy_bus_parking:37_14)
 ! Time = 101.39s, Average fail depth = 364, Memory usage = 874.6 MB
 !               Branches  Non-fixed            Branch decision
                    81000      27220                  !presenceOf(copy_trips:18_2)
                    82000      28370        F          presenceOf(copy_trips:4_25)
                    83000      28361        F          presenceOf(copy_trips:1_25)
                    84000      28361        F          presenceOf(copy_trips:28_25)
                    85000      28358                   presenceOf(copy_trips:16_25)
                    86000      28358                   presenceOf(copy_lane_parking:1_264)
                    87000      22549        F          presenceOf(copy_trips:24_4)
                    88000      29419                   presenceOf(copy_lane_parking:3_84)
                    89000      24905                   presenceOf(copy_lane_parking:4_26)
                    90000      29604                   presenceOf(copy_lane_parking:3_131)
                    91000      16709                   presenceOf(copy_bus_parking:16_248)
                    92000      13235        F          presenceOf(copy_bus_parking:12_219)
                    93000      13235        F         !presenceOf(copy_bus_parking:25_298)
                    94000      19873        F          presenceOf(copy_bus_parking:29_70)
                    95000      19061        F          presenceOf(copy_trips:18_4)
                    96000      20946                   presenceOf(copy_bus_parking:15_207)
                    97000      13232        F          presenceOf(copy_bus_parking:5_219)
                    98000      13229        F          presenceOf(copy_bus_parking:11_219)
                    99000      13232        F          presenceOf(copy_bus_parking:21_219)
                     100k      13232                   presenceOf(copy_bus_parking:8_2)
 ! Time = 123.68s, Average fail depth = 372, Memory usage = 874.9 MB
 !               Branches  Non-fixed            Branch decision
                     101k      35228                   presenceOf(copy_bus_parking:22_2)
                     102k      33469                   presenceOf(copy_bus_parking:8_12)
                     103k      33469                   presenceOf(copy_lane_parking:4_6)
                     104k      23419                  !presenceOf(copy_trips:24_0)
                     105k      21762                  !presenceOf(copy_trips:27_81)
                     106k      21762        F          presenceOf(copy_bus_parking:33_10)
                     107k      21762                  !presenceOf(copy_trips:31_81)
                     108k      21765                   presenceOf(copy_trips:28_14)
                     109k      21762        F         !presenceOf(copy_bus_parking:33_10)
                     110k      21761        F          presenceOf(copy_bus_parking:26_10)
                     111k      21761                   presenceOf(copy_bus_parking:37_13)
                     112k      21761                  !presenceOf(copy_bus_parking:25_10)
                     113k      21761        F         !presenceOf(copy_bus_parking:16_10)
                     114k      21761                   presenceOf(copy_trips:14_81)
                     115k      21761        F         !presenceOf(copy_bus_parking:16_10)
                     116k      21764                   presenceOf(copy_trips:39_81)
                     117k      21764                   presenceOf(copy_lane_parking:3_292)
                     118k      24905                   presenceOf(copy_trips:2_104)
                     119k      23661        F          presenceOf(copy_bus_parking:38_219)
                     120k      24893        F         !presenceOf(copy_trips:8_4)
 ! Time = 142.63s, Average fail depth = 377, Memory usage = 874.9 MB
 !               Branches  Non-fixed            Branch decision
                     121k      22486                  !presenceOf(copy_bus_parking:7_3)
                     122k      22486                   presenceOf(copy_lane_parking:5_13)
                     123k      24905        F          presenceOf(copy_bus_parking:21_219)
                     124k      17573                   presenceOf(copy_trips:20_236)
                     125k      13084        F         !presenceOf(copy_trips:13_40)
                     126k      24905                   presenceOf(copy_lane_parking:1_243)
                     127k      28981        F          presenceOf(copy_bus_parking:20_32)
                     128k      13232        F          presenceOf(copy_bus_parking:29_219)
                     129k      13229        F          presenceOf(copy_bus_parking:20_219)
                     130k      13229        F          presenceOf(copy_bus_parking:21_219)
                     131k      13232                   presenceOf(copy_lane_parking:0_128)
                     132k      24896                   presenceOf(copy_trips:33_241)
                     133k      24908                   presenceOf(copy_lane_parking:1_0)
                     134k      24905                   presenceOf(copy_bus_parking:16_263)
                     135k      24905        F          presenceOf(copy_trips:1_71)
                     136k      20962                   presenceOf(copy_trips:31_208)
                     137k      24899                  !presenceOf(copy_trips:15_219)
                     138k      24902                  !presenceOf(copy_trips:22_9)
                     139k      24053            909  = startOf(charge:31_54)
                     140k      11368                   presenceOf(copy_trips:5_207)
 ! Time = 164.34s, Average fail depth = 378, Memory usage = 910.5 MB
 !               Branches  Non-fixed            Branch decision
                     141k         36           3897  = startOf(charge:21_249)
 *                   141k  164.71s                   -
 ! ----------------------------------------------------------------------------
 ! Search completed, 1 solution found.
 ! ----------------------------------------------------------------------------
 ! Number of branches     : 141106
 ! Number of fails        : 52471
 ! Total memory usage     : 983.6 MB (960.4 MB CP Optimizer + 23.1 MB Concert)
 ! Time spent in solve    : 164.71s (161.30s engine + 3.42s extraction)
 ! Search speed (br. / s) : 874.9
 ! ----------------------------------------------------------------------------
